(set-info :smt-lib-version 2.6)
(set-logic UF)
(set-info :source |Benchmarks from the paper: "Extending Sledgehammer with SMT Solvers" by Jasmin Blanchette, Sascha Bohme, and Lawrence C. Paulson, CADE 2011.  Translated to SMT2 by Andrew Reynolds and Morgan Deters.|)
(set-info :category "industrial")
(set-info :status sat)
(declare-sort S1 0)
(declare-sort S2 0)
(declare-sort S3 0)
(declare-sort S4 0)
(declare-sort S5 0)
(declare-sort S6 0)
(declare-sort S7 0)
(declare-sort S8 0)
(declare-sort S9 0)
(declare-sort S10 0)
(declare-sort S11 0)
(declare-sort S12 0)
(declare-sort S13 0)
(declare-sort S14 0)
(declare-sort S15 0)
(declare-sort S16 0)
(declare-sort S17 0)
(declare-sort S18 0)
(declare-sort S19 0)
(declare-sort S20 0)
(declare-sort S21 0)
(declare-sort S22 0)
(declare-fun f1 () S1)
(declare-fun f2 () S1)
(declare-fun f3 (S2 S3) S4)
(declare-fun f4 (S5 S4) S2)
(declare-fun f5 () S5)
(declare-fun f6 () S2)
(declare-fun f7 (S6 S3) S3)
(declare-fun f8 (S7 S3) S6)
(declare-fun f9 () S7)
(declare-fun f10 () S3)
(declare-fun f11 (S8 S9) S3)
(declare-fun f12 () S8)
(declare-fun f13 (S10 S9) S9)
(declare-fun f14 () S10)
(declare-fun f15 () S10)
(declare-fun f16 () S9)
(declare-fun f17 (S11 S4) S4)
(declare-fun f18 () S11)
(declare-fun f19 () S4)
(declare-fun f20 (S3 S3) S1)
(declare-fun f21 () S3)
(declare-fun f22 () S3)
(declare-fun f23 (S12 S3) S13)
(declare-fun f24 (S14 S13) S12)
(declare-fun f25 () S14)
(declare-fun f26 (S15 S13) S13)
(declare-fun f27 () S15)
(declare-fun f28 () S13)
(declare-fun f29 (S16 S3) S9)
(declare-fun f30 (S17 S9) S16)
(declare-fun f31 () S17)
(declare-fun f32 () S10)
(declare-fun f33 () S9)
(declare-fun f34 () S7)
(declare-fun f35 (S18 S9) S10)
(declare-fun f36 () S18)
(declare-fun f37 (S19 S4) S11)
(declare-fun f38 () S19)
(declare-fun f39 (S20 S13) S15)
(declare-fun f40 () S20)
(declare-fun f41 () S10)
(declare-fun f42 (S21 S9) S4)
(declare-fun f43 () S21)
(declare-fun f44 (S22 S9) S13)
(declare-fun f45 () S22)
(declare-fun f46 (S9 S9) S1)
(declare-fun f47 () S9)
(declare-fun f48 (S13 S13) S1)
(declare-fun f49 () S13)
(declare-fun f50 () S4)
(assert (not (= f1 f2)))
(assert (not (= (f3 (f4 f5 (f3 f6 (f7 (f8 f9 f10) (f11 f12 (f13 f14 (f13 f15 f16)))))) f10) (f17 f18 f19))))
(assert (= (f20 f21 f10) f1))
(assert (forall ((?v0 S3)) (let ((?v_1 (f11 f12 (f13 f14 (f13 f15 f16)))) (?v_0 (f8 f9 ?v0))) (=> (= (f20 f21 ?v0) f1) (= (f3 (f4 f5 (f3 f6 (f7 ?v_0 ?v_1))) (f7 ?v_0 f22)) (f3 (f4 f5 (f3 f6 ?v_1)) f22))))))
(assert (= (f3 f6 f22) f19))
(assert (= (f3 f6 f21) f19))
(assert (forall ((?v0 S3)) (= (f3 (f4 f5 (f3 f6 ?v0)) ?v0) f19)))
(assert (forall ((?v0 S3) (?v1 S3) (?v2 S3)) (let ((?v_0 (f8 f9 (f11 f12 (f13 f14 (f13 f15 f16))))) (?v_1 (f8 f9 ?v1))) (= (f3 (f4 f5 (f3 f6 (f7 ?v_0 ?v0))) (f7 ?v_1 (f7 ?v_0 ?v2))) (f3 (f4 f5 (f3 f6 ?v0)) (f7 ?v_1 ?v2))))))
(assert (forall ((?v0 S3) (?v1 S3) (?v2 S3)) (let ((?v_0 (f8 f9 ?v0))) (=> (= (f20 f21 ?v0) f1) (= (f3 (f4 f5 (f3 f6 (f7 ?v_0 ?v1))) (f7 ?v_0 ?v2)) (f3 (f4 f5 (f3 f6 ?v1)) ?v2))))))
(assert (forall ((?v0 S3)) (= (f23 (f24 f25 (f26 f27 f28)) (f7 (f8 f9 (f11 f12 (f13 f14 (f13 f15 f16)))) ?v0)) f28)))
(assert (forall ((?v0 S3)) (= (f3 (f4 f5 (f17 f18 f19)) (f7 (f8 f9 (f11 f12 (f13 f14 (f13 f15 f16)))) ?v0)) f19)))
(assert (forall ((?v0 S3)) (= (f29 (f30 f31 (f13 f32 f33)) (f7 (f8 f9 (f11 f12 (f13 f14 (f13 f15 f16)))) ?v0)) f33)))
(assert (forall ((?v0 S9) (?v1 S3)) (let ((?v_0 (f7 (f8 f9 (f11 f12 (f13 f14 (f13 f15 f16)))) ?v1))) (= (f29 (f30 f31 (f13 f32 ?v0)) ?v_0) (f29 (f30 f31 ?v0) ?v_0)))))
(assert (forall ((?v0 S4) (?v1 S3)) (let ((?v_0 (f7 (f8 f9 (f11 f12 (f13 f14 (f13 f15 f16)))) ?v1))) (= (f3 (f4 f5 (f17 f18 ?v0)) ?v_0) (f3 (f4 f5 ?v0) ?v_0)))))
(assert (forall ((?v0 S13) (?v1 S3)) (let ((?v_0 (f7 (f8 f9 (f11 f12 (f13 f14 (f13 f15 f16)))) ?v1))) (= (f23 (f24 f25 (f26 f27 ?v0)) ?v_0) (f23 (f24 f25 ?v0) ?v_0)))))
(assert (forall ((?v0 S3) (?v1 S3)) (let ((?v_0 (f8 f34 ?v0))) (let ((?v_1 (f7 ?v_0 ?v1))) (= (f7 ?v_0 (f7 (f8 f9 (f11 f12 (f13 f14 (f13 f15 f16)))) ?v1)) (f7 (f8 f9 ?v_1) ?v_1))))))
(assert (forall ((?v0 S9) (?v1 S3)) (let ((?v_0 (f30 f31 ?v0))) (let ((?v_1 (f29 ?v_0 ?v1))) (= (f29 ?v_0 (f7 (f8 f9 (f11 f12 (f13 f14 (f13 f15 f16)))) ?v1)) (f13 (f35 f36 ?v_1) ?v_1))))))
(assert (forall ((?v0 S4) (?v1 S3)) (let ((?v_0 (f4 f5 ?v0))) (let ((?v_1 (f3 ?v_0 ?v1))) (= (f3 ?v_0 (f7 (f8 f9 (f11 f12 (f13 f14 (f13 f15 f16)))) ?v1)) (f17 (f37 f38 ?v_1) ?v_1))))))
(assert (forall ((?v0 S13) (?v1 S3)) (let ((?v_0 (f24 f25 ?v0))) (let ((?v_1 (f23 ?v_0 ?v1))) (= (f23 ?v_0 (f7 (f8 f9 (f11 f12 (f13 f14 (f13 f15 f16)))) ?v1)) (f26 (f39 f40 ?v_1) ?v_1))))))
(assert (forall ((?v0 S13)) (= (= (f23 (f24 f25 ?v0) (f11 f12 (f13 f14 (f13 f15 f16)))) f28) (or (= ?v0 f28) (= ?v0 (f26 f27 f28))))))
(assert (forall ((?v0 S4)) (= (= (f3 (f4 f5 ?v0) (f11 f12 (f13 f14 (f13 f15 f16)))) f19) (or (= ?v0 f19) (= ?v0 (f17 f18 f19))))))
(assert (forall ((?v0 S9)) (= (= (f29 (f30 f31 ?v0) (f11 f12 (f13 f14 (f13 f15 f16)))) f33) (or (= ?v0 f33) (= ?v0 (f13 f32 f33))))))
(assert (forall ((?v0 S9)) (let ((?v_0 (f11 f12 ?v0))) (= (f7 (f8 f34 ?v_0) (f11 f12 (f13 f14 (f13 f15 f16)))) (f7 (f8 f9 ?v_0) ?v_0)))))
(assert (forall ((?v0 S9)) (let ((?v_0 (f13 f41 ?v0))) (= (f29 (f30 f31 ?v_0) (f11 f12 (f13 f14 (f13 f15 f16)))) (f13 (f35 f36 ?v_0) ?v_0)))))
(assert (forall ((?v0 S9)) (let ((?v_0 (f42 f43 ?v0))) (= (f3 (f4 f5 ?v_0) (f11 f12 (f13 f14 (f13 f15 f16)))) (f17 (f37 f38 ?v_0) ?v_0)))))
(assert (forall ((?v0 S9)) (let ((?v_0 (f44 f45 ?v0))) (= (f23 (f24 f25 ?v_0) (f11 f12 (f13 f14 (f13 f15 f16)))) (f26 (f39 f40 ?v_0) ?v_0)))))
(assert (forall ((?v0 S9)) (not (= (f46 (f29 (f30 f31 ?v0) (f11 f12 (f13 f14 (f13 f15 f16)))) f47) f1))))
(assert (forall ((?v0 S13)) (not (= (f48 (f23 (f24 f25 ?v0) (f11 f12 (f13 f14 (f13 f15 f16)))) f49) f1))))
(assert (forall ((?v0 S9)) (= (= (f46 f47 (f29 (f30 f31 ?v0) (f11 f12 (f13 f14 (f13 f15 f16))))) f1) (not (= ?v0 f47)))))
(assert (forall ((?v0 S13)) (= (= (f48 f49 (f23 (f24 f25 ?v0) (f11 f12 (f13 f14 (f13 f15 f16))))) f1) (not (= ?v0 f49)))))
(assert (forall ((?v0 S9) (?v1 S3)) (let ((?v_1 (f11 f12 (f13 f14 (f13 f15 f16)))) (?v_0 (f30 f31 ?v0))) (= (f29 ?v_0 (f7 (f8 f9 ?v_1) ?v1)) (f29 (f30 f31 (f29 ?v_0 ?v1)) ?v_1)))))
(assert (forall ((?v0 S3) (?v1 S3)) (let ((?v_1 (f11 f12 (f13 f14 (f13 f15 f16)))) (?v_0 (f8 f34 ?v0))) (= (f7 ?v_0 (f7 (f8 f9 ?v_1) ?v1)) (f7 (f8 f34 (f7 ?v_0 ?v1)) ?v_1)))))
(assert (forall ((?v0 S4) (?v1 S3)) (let ((?v_1 (f11 f12 (f13 f14 (f13 f15 f16)))) (?v_0 (f4 f5 ?v0))) (= (f3 ?v_0 (f7 (f8 f9 ?v_1) ?v1)) (f3 (f4 f5 (f3 ?v_0 ?v1)) ?v_1)))))
(assert (forall ((?v0 S13) (?v1 S3)) (let ((?v_1 (f11 f12 (f13 f14 (f13 f15 f16)))) (?v_0 (f24 f25 ?v0))) (= (f23 ?v_0 (f7 (f8 f9 ?v_1) ?v1)) (f23 (f24 f25 (f23 ?v_0 ?v1)) ?v_1)))))
(assert (forall ((?v0 S9)) (let ((?v_0 (f11 f12 (f13 f14 (f13 f15 f16))))) (= (f29 (f30 f31 (f13 f32 ?v0)) ?v_0) (f29 (f30 f31 ?v0) ?v_0)))))
(assert (forall ((?v0 S4)) (let ((?v_0 (f11 f12 (f13 f14 (f13 f15 f16))))) (= (f3 (f4 f5 (f17 f18 ?v0)) ?v_0) (f3 (f4 f5 ?v0) ?v_0)))))
(assert (forall ((?v0 S13)) (let ((?v_0 (f11 f12 (f13 f14 (f13 f15 f16))))) (= (f23 (f24 f25 (f26 f27 ?v0)) ?v_0) (f23 (f24 f25 ?v0) ?v_0)))))
(assert (= (f20 f21 (f11 f12 (f13 f14 (f13 f15 f16)))) f1))
(assert (= (f23 (f24 f25 f28) (f11 f12 (f13 f14 (f13 f15 f16)))) f28))
(assert (= (f3 (f4 f5 f19) (f11 f12 (f13 f14 (f13 f15 f16)))) f19))
(assert (= (f7 (f8 f34 f22) (f11 f12 (f13 f14 (f13 f15 f16)))) f22))
(assert (= (f29 (f30 f31 f33) (f11 f12 (f13 f14 (f13 f15 f16)))) f33))
(assert (forall ((?v0 S3)) (= (f7 (f8 f9 ?v0) ?v0) (f7 (f8 f34 ?v0) (f11 f12 (f13 f14 (f13 f15 f16)))))))
(assert (forall ((?v0 S9)) (= (f13 (f35 f36 ?v0) ?v0) (f29 (f30 f31 ?v0) (f11 f12 (f13 f14 (f13 f15 f16)))))))
(assert (forall ((?v0 S4)) (= (f17 (f37 f38 ?v0) ?v0) (f3 (f4 f5 ?v0) (f11 f12 (f13 f14 (f13 f15 f16)))))))
(assert (forall ((?v0 S13)) (= (f26 (f39 f40 ?v0) ?v0) (f23 (f24 f25 ?v0) (f11 f12 (f13 f14 (f13 f15 f16)))))))
(assert (forall ((?v0 S13)) (let ((?v_0 (f13 f14 (f13 f15 f16)))) (let ((?v_1 (f11 f12 ?v_0))) (= (f26 (f39 f40 (f44 f45 (f13 f14 ?v_0))) (f23 (f24 f25 ?v0) ?v_1)) (f23 (f24 f25 (f26 (f39 f40 (f44 f45 ?v_0)) ?v0)) ?v_1))))))
(assert (forall ((?v0 S9) (?v1 S9) (?v2 S3)) (= (f7 (f8 f9 (f11 f12 ?v0)) (f7 (f8 f9 (f11 f12 ?v1)) ?v2)) (ite (= (f46 ?v0 f16) f1) f21 (f7 (f8 f9 (f11 f12 (f13 (f35 f36 ?v0) ?v1))) ?v2)))))
(assert (forall ((?v0 S9) (?v1 S9)) (= (f7 (f8 f9 (f11 f12 ?v0)) (f11 f12 ?v1)) (ite (= (f46 ?v0 f16) f1) f21 (f11 f12 (f13 (f35 f36 ?v0) ?v1))))))
(assert (forall ((?v0 S3)) (not (= (f3 f6 ?v0) f50))))
(assert (forall ((?v0 S9) (?v1 S9)) (= (= (f20 (f11 f12 ?v0) (f11 f12 ?v1)) f1) (ite (= (f46 ?v0 ?v1) f1) (= (f46 f16 ?v1) f1) false))))
(assert (forall ((?v0 S9)) (= (= (f20 f21 (f11 f12 ?v0)) f1) (= (f46 f16 ?v0) f1))))
(assert (forall ((?v0 S4) (?v1 S4) (?v2 S4) (?v3 S4)) (let ((?v_0 (f37 f38 ?v0))) (= (f17 (f37 f38 (f17 ?v_0 ?v1)) (f17 (f37 f38 ?v2) ?v3)) (f17 (f37 f38 (f17 ?v_0 ?v2)) (f17 (f37 f38 ?v1) ?v3))))))
(assert (forall ((?v0 S3) (?v1 S3) (?v2 S3) (?v3 S3)) (let ((?v_0 (f8 f9 ?v0))) (= (f7 (f8 f9 (f7 ?v_0 ?v1)) (f7 (f8 f9 ?v2) ?v3)) (f7 (f8 f9 (f7 ?v_0 ?v2)) (f7 (f8 f9 ?v1) ?v3))))))
(assert (forall ((?v0 S13) (?v1 S13) (?v2 S13) (?v3 S13)) (let ((?v_0 (f39 f40 ?v0))) (= (f26 (f39 f40 (f26 ?v_0 ?v1)) (f26 (f39 f40 ?v2) ?v3)) (f26 (f39 f40 (f26 ?v_0 ?v2)) (f26 (f39 f40 ?v1) ?v3))))))
(assert (forall ((?v0 S9) (?v1 S9) (?v2 S9) (?v3 S9)) (let ((?v_0 (f35 f36 ?v0))) (= (f13 (f35 f36 (f13 ?v_0 ?v1)) (f13 (f35 f36 ?v2) ?v3)) (f13 (f35 f36 (f13 ?v_0 ?v2)) (f13 (f35 f36 ?v1) ?v3))))))
(assert (forall ((?v0 S4) (?v1 S4) (?v2 S4) (?v3 S4)) (let ((?v_1 (f37 f38 (f17 (f37 f38 ?v0) ?v1))) (?v_0 (f37 f38 ?v2))) (= (f17 ?v_1 (f17 ?v_0 ?v3)) (f17 ?v_0 (f17 ?v_1 ?v3))))))
(assert (forall ((?v0 S3) (?v1 S3) (?v2 S3) (?v3 S3)) (let ((?v_1 (f8 f9 (f7 (f8 f9 ?v0) ?v1))) (?v_0 (f8 f9 ?v2))) (= (f7 ?v_1 (f7 ?v_0 ?v3)) (f7 ?v_0 (f7 ?v_1 ?v3))))))
(assert (forall ((?v0 S13) (?v1 S13) (?v2 S13) (?v3 S13)) (let ((?v_1 (f39 f40 (f26 (f39 f40 ?v0) ?v1))) (?v_0 (f39 f40 ?v2))) (= (f26 ?v_1 (f26 ?v_0 ?v3)) (f26 ?v_0 (f26 ?v_1 ?v3))))))
(assert (forall ((?v0 S9) (?v1 S9) (?v2 S9) (?v3 S9)) (let ((?v_1 (f35 f36 (f13 (f35 f36 ?v0) ?v1))) (?v_0 (f35 f36 ?v2))) (= (f13 ?v_1 (f13 ?v_0 ?v3)) (f13 ?v_0 (f13 ?v_1 ?v3))))))
(assert (forall ((?v0 S4) (?v1 S4) (?v2 S4) (?v3 S4)) (let ((?v_0 (f37 f38 ?v0)) (?v_1 (f17 (f37 f38 ?v2) ?v3))) (= (f17 (f37 f38 (f17 ?v_0 ?v1)) ?v_1) (f17 ?v_0 (f17 (f37 f38 ?v1) ?v_1))))))
(assert (forall ((?v0 S3) (?v1 S3) (?v2 S3) (?v3 S3)) (let ((?v_0 (f8 f9 ?v0)) (?v_1 (f7 (f8 f9 ?v2) ?v3))) (= (f7 (f8 f9 (f7 ?v_0 ?v1)) ?v_1) (f7 ?v_0 (f7 (f8 f9 ?v1) ?v_1))))))
(assert (forall ((?v0 S13) (?v1 S13) (?v2 S13) (?v3 S13)) (let ((?v_0 (f39 f40 ?v0)) (?v_1 (f26 (f39 f40 ?v2) ?v3))) (= (f26 (f39 f40 (f26 ?v_0 ?v1)) ?v_1) (f26 ?v_0 (f26 (f39 f40 ?v1) ?v_1))))))
(assert (forall ((?v0 S9) (?v1 S9) (?v2 S9) (?v3 S9)) (let ((?v_0 (f35 f36 ?v0)) (?v_1 (f13 (f35 f36 ?v2) ?v3))) (= (f13 (f35 f36 (f13 ?v_0 ?v1)) ?v_1) (f13 ?v_0 (f13 (f35 f36 ?v1) ?v_1))))))
(assert (forall ((?v0 S4) (?v1 S4) (?v2 S4)) (let ((?v_0 (f37 f38 ?v0))) (= (f17 (f37 f38 (f17 ?v_0 ?v1)) ?v2) (f17 (f37 f38 (f17 ?v_0 ?v2)) ?v1)))))
(assert (forall ((?v0 S3) (?v1 S3) (?v2 S3)) (let ((?v_0 (f8 f9 ?v0))) (= (f7 (f8 f9 (f7 ?v_0 ?v1)) ?v2) (f7 (f8 f9 (f7 ?v_0 ?v2)) ?v1)))))
(assert (forall ((?v0 S13) (?v1 S13) (?v2 S13)) (let ((?v_0 (f39 f40 ?v0))) (= (f26 (f39 f40 (f26 ?v_0 ?v1)) ?v2) (f26 (f39 f40 (f26 ?v_0 ?v2)) ?v1)))))
(assert (forall ((?v0 S9) (?v1 S9) (?v2 S9)) (let ((?v_0 (f35 f36 ?v0))) (= (f13 (f35 f36 (f13 ?v_0 ?v1)) ?v2) (f13 (f35 f36 (f13 ?v_0 ?v2)) ?v1)))))
(assert (forall ((?v0 S4) (?v1 S4) (?v2 S4)) (let ((?v_0 (f37 f38 ?v0))) (= (f17 (f37 f38 (f17 ?v_0 ?v1)) ?v2) (f17 ?v_0 (f17 (f37 f38 ?v1) ?v2))))))
(assert (forall ((?v0 S3) (?v1 S3) (?v2 S3)) (let ((?v_0 (f8 f9 ?v0))) (= (f7 (f8 f9 (f7 ?v_0 ?v1)) ?v2) (f7 ?v_0 (f7 (f8 f9 ?v1) ?v2))))))
(assert (forall ((?v0 S13) (?v1 S13) (?v2 S13)) (let ((?v_0 (f39 f40 ?v0))) (= (f26 (f39 f40 (f26 ?v_0 ?v1)) ?v2) (f26 ?v_0 (f26 (f39 f40 ?v1) ?v2))))))
(assert (forall ((?v0 S9) (?v1 S9) (?v2 S9)) (let ((?v_0 (f35 f36 ?v0))) (= (f13 (f35 f36 (f13 ?v_0 ?v1)) ?v2) (f13 ?v_0 (f13 (f35 f36 ?v1) ?v2))))))
(assert (forall ((?v0 S4) (?v1 S4) (?v2 S4)) (let ((?v_0 (f37 f38 ?v0))) (= (f17 ?v_0 (f17 (f37 f38 ?v1) ?v2)) (f17 (f37 f38 (f17 ?v_0 ?v1)) ?v2)))))
(assert (forall ((?v0 S3) (?v1 S3) (?v2 S3)) (let ((?v_0 (f8 f9 ?v0))) (= (f7 ?v_0 (f7 (f8 f9 ?v1) ?v2)) (f7 (f8 f9 (f7 ?v_0 ?v1)) ?v2)))))
(assert (forall ((?v0 S13) (?v1 S13) (?v2 S13)) (let ((?v_0 (f39 f40 ?v0))) (= (f26 ?v_0 (f26 (f39 f40 ?v1) ?v2)) (f26 (f39 f40 (f26 ?v_0 ?v1)) ?v2)))))
(assert (forall ((?v0 S9) (?v1 S9) (?v2 S9)) (let ((?v_0 (f35 f36 ?v0))) (= (f13 ?v_0 (f13 (f35 f36 ?v1) ?v2)) (f13 (f35 f36 (f13 ?v_0 ?v1)) ?v2)))))
(assert (forall ((?v0 S4) (?v1 S4) (?v2 S4)) (let ((?v_1 (f37 f38 ?v0)) (?v_0 (f37 f38 ?v1))) (= (f17 ?v_1 (f17 ?v_0 ?v2)) (f17 ?v_0 (f17 ?v_1 ?v2))))))
(assert (forall ((?v0 S3) (?v1 S3) (?v2 S3)) (let ((?v_1 (f8 f9 ?v0)) (?v_0 (f8 f9 ?v1))) (= (f7 ?v_1 (f7 ?v_0 ?v2)) (f7 ?v_0 (f7 ?v_1 ?v2))))))
(assert (forall ((?v0 S13) (?v1 S13) (?v2 S13)) (let ((?v_1 (f39 f40 ?v0)) (?v_0 (f39 f40 ?v1))) (= (f26 ?v_1 (f26 ?v_0 ?v2)) (f26 ?v_0 (f26 ?v_1 ?v2))))))
(assert (forall ((?v0 S9) (?v1 S9) (?v2 S9)) (let ((?v_1 (f35 f36 ?v0)) (?v_0 (f35 f36 ?v1))) (= (f13 ?v_1 (f13 ?v_0 ?v2)) (f13 ?v_0 (f13 ?v_1 ?v2))))))
(assert (forall ((?v0 S4) (?v1 S4)) (= (f17 (f37 f38 ?v0) ?v1) (f17 (f37 f38 ?v1) ?v0))))
(assert (forall ((?v0 S3) (?v1 S3)) (= (f7 (f8 f9 ?v0) ?v1) (f7 (f8 f9 ?v1) ?v0))))
(assert (forall ((?v0 S13) (?v1 S13)) (= (f26 (f39 f40 ?v0) ?v1) (f26 (f39 f40 ?v1) ?v0))))
(assert (forall ((?v0 S9) (?v1 S9)) (= (f13 (f35 f36 ?v0) ?v1) (f13 (f35 f36 ?v1) ?v0))))
(assert (forall ((?v0 S3)) (= (f7 (f8 f9 ?v0) f21) f21)))
(assert (forall ((?v0 S9)) (= (f13 (f35 f36 ?v0) f47) f47)))
(assert (forall ((?v0 S4)) (= (f17 (f37 f38 ?v0) f50) f50)))
(assert (forall ((?v0 S13)) (= (f26 (f39 f40 ?v0) f49) f49)))
(assert (forall ((?v0 S3)) (= (f7 (f8 f9 f21) ?v0) f21)))
(assert (forall ((?v0 S9)) (= (f13 (f35 f36 f47) ?v0) f47)))
(assert (forall ((?v0 S4)) (= (f17 (f37 f38 f50) ?v0) f50)))
(assert (forall ((?v0 S13)) (= (f26 (f39 f40 f49) ?v0) f49)))
(assert (forall ((?v0 S13)) (= (f26 (f39 f40 ?v0) f28) ?v0)))
(assert (forall ((?v0 S4)) (= (f17 (f37 f38 ?v0) f19) ?v0)))
(assert (forall ((?v0 S3)) (= (f7 (f8 f9 ?v0) f22) ?v0)))
(assert (forall ((?v0 S9)) (= (f13 (f35 f36 ?v0) f33) ?v0)))
(assert (forall ((?v0 S13)) (= (f26 (f39 f40 f28) ?v0) ?v0)))
(assert (forall ((?v0 S4)) (= (f17 (f37 f38 f19) ?v0) ?v0)))
(assert (forall ((?v0 S3)) (= (f7 (f8 f9 f22) ?v0) ?v0)))
(assert (forall ((?v0 S9)) (= (f13 (f35 f36 f33) ?v0) ?v0)))
(assert (forall ((?v0 S3) (?v1 S3) (?v2 S3)) (= (f7 (f8 f34 (f7 (f8 f9 ?v0) ?v1)) ?v2) (f7 (f8 f9 (f7 (f8 f34 ?v0) ?v2)) (f7 (f8 f34 ?v1) ?v2)))))
(assert (forall ((?v0 S9) (?v1 S9) (?v2 S3)) (= (f29 (f30 f31 (f13 (f35 f36 ?v0) ?v1)) ?v2) (f13 (f35 f36 (f29 (f30 f31 ?v0) ?v2)) (f29 (f30 f31 ?v1) ?v2)))))
(assert (forall ((?v0 S4) (?v1 S4) (?v2 S3)) (= (f3 (f4 f5 (f17 (f37 f38 ?v0) ?v1)) ?v2) (f17 (f37 f38 (f3 (f4 f5 ?v0) ?v2)) (f3 (f4 f5 ?v1) ?v2)))))
(assert (forall ((?v0 S13) (?v1 S13) (?v2 S3)) (= (f23 (f24 f25 (f26 (f39 f40 ?v0) ?v1)) ?v2) (f26 (f39 f40 (f23 (f24 f25 ?v0) ?v2)) (f23 (f24 f25 ?v1) ?v2)))))
(assert (forall ((?v0 S9) (?v1 S3) (?v2 S3)) (let ((?v_0 (f30 f31 ?v0))) (= (f29 (f30 f31 (f29 ?v_0 ?v1)) ?v2) (f29 ?v_0 (f7 (f8 f9 ?v1) ?v2))))))
(assert (forall ((?v0 S3) (?v1 S3) (?v2 S3)) (let ((?v_0 (f8 f34 ?v0))) (= (f7 (f8 f34 (f7 ?v_0 ?v1)) ?v2) (f7 ?v_0 (f7 (f8 f9 ?v1) ?v2))))))
(assert (forall ((?v0 S4) (?v1 S3) (?v2 S3)) (let ((?v_0 (f4 f5 ?v0))) (= (f3 (f4 f5 (f3 ?v_0 ?v1)) ?v2) (f3 ?v_0 (f7 (f8 f9 ?v1) ?v2))))))
(assert (forall ((?v0 S13) (?v1 S3) (?v2 S3)) (let ((?v_0 (f24 f25 ?v0))) (= (f23 (f24 f25 (f23 ?v_0 ?v1)) ?v2) (f23 ?v_0 (f7 (f8 f9 ?v1) ?v2))))))
(assert (forall ((?v0 S9)) (= (f29 (f30 f31 ?v0) f22) ?v0)))
(assert (forall ((?v0 S3)) (= (f7 (f8 f34 ?v0) f22) ?v0)))
(assert (forall ((?v0 S4)) (= (f3 (f4 f5 ?v0) f22) ?v0)))
(assert (forall ((?v0 S13)) (= (f23 (f24 f25 ?v0) f22) ?v0)))
(assert (= f47 (f13 f41 f16)))
(assert (= f50 (f42 f43 f16)))
(assert (= f49 (f44 f45 f16)))
(assert (forall ((?v0 S13)) (= (f26 f27 ?v0) (f26 (f39 f40 (f26 f27 f28)) ?v0))))
(assert (forall ((?v0 S4)) (= (f17 f18 ?v0) (f17 (f37 f38 (f17 f18 f19)) ?v0))))
(assert (forall ((?v0 S9)) (= (f13 f32 ?v0) (f13 (f35 f36 (f13 f32 f33)) ?v0))))
(assert (forall ((?v0 S13)) (= (f23 (f24 f25 ?v0) f21) f28)))
(assert (forall ((?v0 S4)) (= (f3 (f4 f5 ?v0) f21) f19)))
(assert (forall ((?v0 S3)) (= (f7 (f8 f34 ?v0) f21) f22)))
(assert (forall ((?v0 S9)) (= (f29 (f30 f31 ?v0) f21) f33)))
(assert (= (f11 f12 f16) f21))
(assert (= f21 (f11 f12 f16)))
(assert (= f28 (f44 f45 (f13 f15 f16))))
(assert (= f19 (f42 f43 (f13 f15 f16))))
(assert (= f33 (f13 f41 (f13 f15 f16))))
(assert (= (f11 f12 (f13 f15 f16)) f22))
(assert (= f22 (f11 f12 (f13 f15 f16))))
(assert (forall ((?v0 S3)) (= (f7 (f8 f34 ?v0) (f11 f12 (f13 f15 (f13 f15 f16)))) (f7 (f8 f9 (f7 (f8 f9 ?v0) ?v0)) ?v0))))
(assert (forall ((?v0 S9)) (= (f29 (f30 f31 ?v0) (f11 f12 (f13 f15 (f13 f15 f16)))) (f13 (f35 f36 (f13 (f35 f36 ?v0) ?v0)) ?v0))))
(assert (forall ((?v0 S4)) (= (f3 (f4 f5 ?v0) (f11 f12 (f13 f15 (f13 f15 f16)))) (f17 (f37 f38 (f17 (f37 f38 ?v0) ?v0)) ?v0))))
(assert (forall ((?v0 S13)) (= (f23 (f24 f25 ?v0) (f11 f12 (f13 f15 (f13 f15 f16)))) (f26 (f39 f40 (f26 (f39 f40 ?v0) ?v0)) ?v0))))
(assert (forall ((?v0 S9)) (= (= (f29 (f30 f31 ?v0) (f11 f12 (f13 f14 (f13 f15 f16)))) f47) (= ?v0 f47))))
(assert (forall ((?v0 S4)) (= (= (f3 (f4 f5 ?v0) (f11 f12 (f13 f14 (f13 f15 f16)))) f50) (= ?v0 f50))))
(assert (forall ((?v0 S13)) (= (= (f23 (f24 f25 ?v0) (f11 f12 (f13 f14 (f13 f15 f16)))) f49) (= ?v0 f49))))
(assert (= (f7 (f8 f34 f21) (f11 f12 (f13 f14 (f13 f15 f16)))) f21))
(assert (= (f29 (f30 f31 f47) (f11 f12 (f13 f14 (f13 f15 f16)))) f47))
(assert (= (f3 (f4 f5 f50) (f11 f12 (f13 f14 (f13 f15 f16)))) f50))
(assert (= (f23 (f24 f25 f49) (f11 f12 (f13 f14 (f13 f15 f16)))) f49))
(assert (forall ((?v0 S3)) (= (f7 (f8 f34 ?v0) (f11 f12 (f13 f14 (f13 f15 f16)))) (f7 (f8 f9 ?v0) ?v0))))
(assert (forall ((?v0 S9)) (= (f29 (f30 f31 ?v0) (f11 f12 (f13 f14 (f13 f15 f16)))) (f13 (f35 f36 ?v0) ?v0))))
(assert (forall ((?v0 S4)) (= (f3 (f4 f5 ?v0) (f11 f12 (f13 f14 (f13 f15 f16)))) (f17 (f37 f38 ?v0) ?v0))))
(assert (forall ((?v0 S13)) (= (f23 (f24 f25 ?v0) (f11 f12 (f13 f14 (f13 f15 f16)))) (f26 (f39 f40 ?v0) ?v0))))
(assert (forall ((?v0 S3)) (=> (= (f20 ?v0 f21) f1) false)))
(assert (forall ((?v0 S9)) (let ((?v_0 (f11 f12 ?v0))) (= (f23 (f24 f25 f49) ?v_0) (ite (= ?v_0 f21) f28 f49)))))
(assert (forall ((?v0 S9)) (let ((?v_0 (f11 f12 ?v0))) (= (f3 (f4 f5 f50) ?v_0) (ite (= ?v_0 f21) f19 f50)))))
(assert (forall ((?v0 S9)) (let ((?v_0 (f11 f12 ?v0))) (= (f7 (f8 f34 f21) ?v_0) (ite (= ?v_0 f21) f22 f21)))))
(assert (forall ((?v0 S9)) (let ((?v_0 (f11 f12 ?v0))) (= (f29 (f30 f31 f47) ?v_0) (ite (= ?v_0 f21) f33 f47)))))
(assert (forall ((?v0 S13) (?v1 S3)) (=> (= (f48 f28 ?v0) f1) (=> (= (f20 f21 ?v1) f1) (= (f48 f28 (f23 (f24 f25 ?v0) ?v1)) f1)))))
(assert (forall ((?v0 S3) (?v1 S3)) (=> (= (f20 f22 ?v0) f1) (=> (= (f20 f21 ?v1) f1) (= (f20 f22 (f7 (f8 f34 ?v0) ?v1)) f1)))))
(assert (forall ((?v0 S9) (?v1 S3)) (=> (= (f46 f33 ?v0) f1) (=> (= (f20 f21 ?v1) f1) (= (f46 f33 (f29 (f30 f31 ?v0) ?v1)) f1)))))
(assert (forall ((?v0 S9)) (= (= (f48 (f44 f45 ?v0) f28) f1) (= (f46 ?v0 (f13 f15 f16)) f1))))
(assert (forall ((?v0 S9)) (= (= (f46 (f13 f41 ?v0) f33) f1) (= (f46 ?v0 (f13 f15 f16)) f1))))
(assert (forall ((?v0 S9)) (= (= (f48 f28 (f44 f45 ?v0)) f1) (= (f46 (f13 f15 f16) ?v0) f1))))
(assert (forall ((?v0 S9)) (= (= (f46 f33 (f13 f41 ?v0)) f1) (= (f46 (f13 f15 f16) ?v0) f1))))
(assert (forall ((?v0 S3) (?v1 S3) (?v2 S13)) (let ((?v_0 (f24 f25 ?v2))) (=> (= (f20 ?v0 ?v1) f1) (=> (= (f48 f49 ?v2) f1) (=> (= (f48 ?v2 f28) f1) (= (f48 (f23 ?v_0 ?v1) (f23 ?v_0 ?v0)) f1)))))))
(assert (forall ((?v0 S3) (?v1 S3) (?v2 S3)) (let ((?v_0 (f8 f34 ?v2))) (=> (= (f20 ?v0 ?v1) f1) (=> (= (f20 f21 ?v2) f1) (=> (= (f20 ?v2 f22) f1) (= (f20 (f7 ?v_0 ?v1) (f7 ?v_0 ?v0)) f1)))))))
(assert (forall ((?v0 S3) (?v1 S3) (?v2 S9)) (let ((?v_0 (f30 f31 ?v2))) (=> (= (f20 ?v0 ?v1) f1) (=> (= (f46 f47 ?v2) f1) (=> (= (f46 ?v2 f33) f1) (= (f46 (f29 ?v_0 ?v1) (f29 ?v_0 ?v0)) f1)))))))
(assert (forall ((?v0 S13) (?v1 S3)) (let ((?v_0 (f23 (f24 f25 ?v0) ?v1))) (=> (= (f48 f49 ?v0) f1) (=> (= (f48 ?v0 f28) f1) (= (f48 (f26 (f39 f40 ?v0) ?v_0) ?v_0) f1))))))
(assert (forall ((?v0 S3) (?v1 S3)) (let ((?v_0 (f7 (f8 f34 ?v0) ?v1))) (=> (= (f20 f21 ?v0) f1) (=> (= (f20 ?v0 f22) f1) (= (f20 (f7 (f8 f9 ?v0) ?v_0) ?v_0) f1))))))
(assert (forall ((?v0 S9) (?v1 S3)) (let ((?v_0 (f29 (f30 f31 ?v0) ?v1))) (=> (= (f46 f47 ?v0) f1) (=> (= (f46 ?v0 f33) f1) (= (f46 (f13 (f35 f36 ?v0) ?v_0) ?v_0) f1))))))
(assert (forall ((?v0 S3) (?v1 S9)) (let ((?v_0 (f11 f12 ?v1))) (= (= (f7 (f8 f34 ?v0) ?v_0) f21) (and (= ?v0 f21) (not (= ?v_0 f21)))))))
(assert (forall ((?v0 S9) (?v1 S9)) (let ((?v_0 (f11 f12 ?v1))) (= (= (f29 (f30 f31 ?v0) ?v_0) f47) (and (= ?v0 f47) (not (= ?v_0 f21)))))))
(assert (forall ((?v0 S4) (?v1 S9)) (let ((?v_0 (f11 f12 ?v1))) (= (= (f3 (f4 f5 ?v0) ?v_0) f50) (and (= ?v0 f50) (not (= ?v_0 f21)))))))
(assert (forall ((?v0 S13) (?v1 S9)) (let ((?v_0 (f11 f12 ?v1))) (= (= (f23 (f24 f25 ?v0) ?v_0) f49) (and (= ?v0 f49) (not (= ?v_0 f21)))))))
(assert (= (f44 f45 (f13 f15 f16)) f28))
(assert (= (f42 f43 (f13 f15 f16)) f19))
(assert (= (f11 f12 (f13 f15 f16)) f22))
(assert (= (f13 f41 (f13 f15 f16)) f33))
(assert (= (f44 f45 (f13 f15 f16)) f28))
(assert (= (f42 f43 (f13 f15 f16)) f19))
(assert (= (f13 f41 (f13 f15 f16)) f33))
(assert (= (f46 f47 f33) f1))
(assert (forall ((?v0 S13)) (= (not (= (f48 f49 (f26 (f39 f40 ?v0) ?v0)) f1)) (= ?v0 f49))))
(assert (forall ((?v0 S9)) (= (f13 (f35 f36 f33) ?v0) ?v0)))
(check-sat)
(exit)
